n_res = 4;
rc = [ 26, 30, 36, 29 ];
n_tasks = 90;
d = [ 6, 10, 1, 4, 3, 6, 7, 2, 4, 9, 2, 9, 9, 6, 3, 6, 9, 3, 4, 6, 4, 10, 8, 8, 10, 2, 7, 8, 4, 10, 10, 7, 5, 6, 8, 6, 4, 9, 2, 3, 4, 4, 10, 4, 4, 7, 1, 10, 10, 2, 9, 10, 10, 10, 7, 9, 3, 7, 6, 4, 4, 1, 5, 3, 8, 7, 5, 10, 6, 8, 7, 8, 3, 7, 7, 8, 4, 4, 1, 5, 1, 6, 4, 9, 9, 10, 5, 8, 2, 7 ];
rr = [| 0, 6, 0, 0, 0, 0, 0, 3, 5, 0, 0, 9, 0, 0, 8, 8, 0, 0, 0, 0, 0, 0, 0, 0, 0, 0, 0, 0, 0, 0, 0, 10, 0, 0, 0, 8, 0, 0, 0, 0, 0, 0, 0, 0, 0, 0, 0, 3, 0, 0, 0, 0, 0, 5, 0, 0, 0, 0, 0, 0, 0, 8, 1, 0, 1, 0, 0, 0, 0, 4, 0, 0, 0, 4, 0, 0, 7, 9, 0, 0, 6, 0, 0, 0, 0, 0, 0, 0, 0, 0
      | 3, 0, 3, 0, 0, 0, 5, 0, 0, 8, 0, 0, 0, 2, 0, 0, 0, 0, 0, 9, 3, 0, 5, 7, 3, 0, 0, 3, 0, 0, 0, 0, 5, 0, 0, 0, 3, 0, 0, 0, 8, 0, 9, 5, 0, 6, 0, 0, 0, 0, 0, 0, 0, 0, 0, 1, 0, 9, 0, 0, 0, 0, 0, 3, 0, 1, 0, 0, 1, 0, 9, 0, 0, 0, 2, 0, 0, 0, 0, 0, 0, 0, 9, 4, 2, 4, 0, 10, 0, 0
      | 0, 0, 0, 0, 0, 0, 0, 0, 0, 0, 0, 0, 0, 0, 0, 0, 8, 0, 0, 0, 0, 0, 0, 0, 0, 0, 0, 0, 6, 9, 8, 0, 0, 0, 3, 0, 0, 0, 8, 2, 0, 3, 0, 0, 0, 0, 0, 0, 0, 0, 2, 3, 0, 0, 3, 0, 0, 0, 0, 9, 0, 0, 0, 0, 0, 0, 3, 0, 0, 0, 0, 6, 0, 0, 0, 4, 0, 0, 0, 0, 0, 0, 0, 0, 0, 0, 0, 0, 10, 0
      | 0, 0, 0, 9, 5, 2, 0, 0, 0, 0, 10, 0, 6, 0, 0, 0, 0, 7, 6, 0, 0, 6, 0, 0, 0, 9, 9, 0, 0, 0, 0, 0, 0, 7, 0, 0, 0, 2, 0, 0, 0, 0, 0, 0, 8, 0, 4, 0, 5, 8, 0, 0, 2, 0, 0, 0, 10, 0, 10, 0, 2, 0, 0, 0, 0, 0, 0, 10, 0, 0, 0, 0, 10, 0, 0, 0, 0, 0, 6, 6, 0, 3, 0, 0, 0, 0, 1, 0, 0, 7 |];
suc = [ { 4, 27, 28 },
       { 7, 9, 11 },
       { 5, 6, 10 },
       { 8, 29, 47 },
       { 17, 42 },
       { 23, 40, 42 },
       { 16, 77, 82 },
       { 84 },
       { 15, 25, 57 },
       { 12, 14, 63 },
       { 13, 75 },
       { 19, 22, 23 },
       { 18, 36 },
       { 43, 55, 76 },
       { 31, 62 },
       { 24, 81 },
       { 20, 52, 67 },
       { 30, 34, 43 },
       { 21, 31, 39 },
       { 26, 62 },
       { 49 },
       { 72 },
       { 54, 56, 58 },
       { 37, 59 },
       { 44, 50, 61 },
       { 35 },
       { 63, 66, 68 },
       { 33, 46, 65 },
       { 38, 58 },
       { 60, 66 },
       { 32, 45, 78 },
       { 43 },
       { 34 },
       { 54, 71 },
       { 48 },
       { 78, 82 },
       { 42 },
       { 86 },
       { 69 },
       { 41, 55 },
       { 51, 52 },
       { 58 },
       { 73 },
       { 48, 80 },
       { 53, 64, 90 },
       { 51, 52, 61 },
       { 51, 72, 73 },
       { 53, 71 },
       { 69 },
       { 63, 71 },
       { 68, 89 },
       { 59, 75 },
       { 59, 60 },
       { 68 },
       { 67 },
       { 65, 73 },
       { 85 },
       { 60 },
       { 83 },
       { 69, 85 },
       { 62, 64, 72 },
       { 82 },
       { 64, 86, 89 },
       { 85 },
       { 70, 77 },
       { 74 },
       { 88 },
       { 70, 80 },
       { 84 },
       { 90 },
       { 76 },
       { 75, 79 },
       { 89 },
       { 79 },
       { 76, 81, 90 },
       { 77, 78 },
       { 83 },
       { 83 },
       { 80 },
       { 81 },
       { 84 },
       { 88 },
       { 86 },
       { 87 },
       { 87 },
       { 87 },
       { 88 },
       {  },
       {  },
       {  } ];
